CMPL model generation - running

CMPL version: 1.11.0
Authors: Thomas Schleiff, Mike Steglich
Distributed under the GPLv3 

create model instance ...
write model instance ...
CMPL model generation - finished

Solver - running


Welcome to IBM(R) ILOG(R) CPLEX(R) Interactive Optimizer 12.7.1.0
  with Simplex, Mixed Integer & Barrier Optimizers
5725-A06 5725-A29 5724-Y48 5724-Y49 5724-Y54 5724-Y55 5655-Y21
Copyright IBM Corp. 1988, 2017.  All Rights Reserved.

Type 'help' for a list of available commands.
Type 'help' followed by a command name for more
information on commands.

CPLEX> Specified objective sense: MINIMIZE
Selected objective  name:  line[1]
Selected RHS        name:  RHS
Selected bound      name:  BOUND
Problem '/tmp/cmpl.T24161.mps' read.
Read time = 0.06 sec. (10.12 ticks)
CPLEX> CPXPARAM_Read_APIEncoding                        "UTF-8"
Tried aggregator 3 times.
MIP Presolve eliminated 23982 rows and 37538 columns.
MIP Presolve modified 425 coefficients.
Aggregator did 779 substitutions.
Reduced MIP has 3161 rows, 4138 columns, and 12242 nonzeros.
Reduced MIP has 3928 binaries, 0 generals, 0 SOSs, and 0 indicators.
Presolve time = 0.07 sec. (52.06 ticks)
Found incumbent of value 967.085385 after 0.12 sec. (88.49 ticks)
Probing fixed 14 vars, tightened 0 bounds.
Probing time = 0.02 sec. (5.38 ticks)
Tried aggregator 1 time.
MIP Presolve eliminated 0 rows and 14 columns.
MIP Presolve modified 79 coefficients.
Reduced MIP has 3161 rows, 4124 columns, and 12214 nonzeros.
Reduced MIP has 4124 binaries, 0 generals, 0 SOSs, and 0 indicators.
Presolve time = 0.02 sec. (10.34 ticks)
Probing time = 0.01 sec. (2.85 ticks)
Clique table members: 7530.
MIP emphasis: balance optimality and feasibility.
MIP search method: dynamic search.
Parallel mode: none, using 1 thread.
Root relaxation solution time = 0.01 sec. (6.49 ticks)

        Nodes                                         Cuts/
   Node  Left     Objective  IInf  Best Integer    Best Bound    ItCnt     Gap

*     0+    0                          967.0854      -20.2233           102.09%
      0     0      244.0627     8      967.0854      244.0627      211   74.76%
*     0+    0                          244.2456      244.0627             0.07%
      0     0      244.1816     2      244.2456      Cuts: 13      216    0.03%
*     0+    0                          244.2273      244.1816             0.02%
      0     0      244.1929     1      244.2273       Cuts: 6      219    0.01%
*     0+    0                          244.2157      244.1929             0.01%

GUB cover cuts applied:  3
Clique cuts applied:  1
Cover cuts applied:  9
Gomory fractional cuts applied:  5

Root node processing (before b&c):
  Real time             =    0.23 sec. (154.58 ticks)
Sequential b&c:
  Real time             =    0.00 sec. (0.00 ticks)
                          ------------
Total (root+branch&cut) =    0.23 sec. (154.58 ticks)

Solution pool: 4 solutions saved.

MIP - Integer optimal, tolerance (0.0001/1e-06):  Objective =  2.4421572300e+02
Current MIP best bound =  2.4419286550e+02 (gap = 0.0228575, 0.01%)
Solution time =    0.23 sec.  Iterations = 219  Nodes = 0 (1)
Deterministic time = 154.70 ticks  (679.12 ticks/sec)

CPLEX> Incumbent solution written to file '/tmp/cmpl.T24161.gsol'.
CPLEX> 
CMPL: Time used for model generation: 1 seconds
CMPL: Time used for solving the model: 1 seconds


Solution written to ASCII file: results/output_generated_conf_0.5/2016-08-01-5/fair-nonlinear.sol

Solver - finished
